p cnf 235 1067
-1 -33 0
-2 -33 0
1 2 33 0
1 2 -34 0
-1 -2 -34 0
-1 2 34 0
1 -2 34 0
33 -35 0
-3 -35 0
3 -33 35 0
3 -33 -36 0
-3 33 -36 0
3 33 36 0
-3 -33 36 0
35 -37 0
-4 -37 0
4 -35 37 0
4 -35 -38 0
-4 35 -38 0
4 35 38 0
-4 -35 38 0
37 -39 0
-5 -39 0
5 -37 39 0
5 -37 -40 0
-5 37 -40 0
5 37 40 0
-5 -37 40 0
39 -41 0
-6 -41 0
6 -39 41 0
6 -39 -42 0
-6 39 -42 0
6 39 42 0
-6 -39 42 0
41 -43 0
-7 -43 0
7 -41 43 0
7 -41 -44 0
-7 41 -44 0
7 41 44 0
-7 -41 44 0
43 -45 0
-8 -45 0
8 -43 45 0
8 -43 -46 0
-8 43 -46 0
8 43 46 0
-8 -43 46 0
2 -47 0
1 -47 0
-1 -2 47 0
-1 -2 -48 0
1 2 -48 0
1 -2 48 0
-1 2 48 0
-2 -3 49 0
-3 -47 49 0
-2 -47 49 0
2 3 -49 0
3 47 -49 0
2 47 -49 0
3 -49 -50 0
2 -49 -50 0
47 -49 -50 0
-3 49 50 0
-2 49 50 0
-47 49 50 0
-2 -3 -47 50 0
2 3 47 -50 0
-3 -4 51 0
-4 -49 51 0
-3 -49 51 0
3 4 -51 0
4 49 -51 0
3 49 -51 0
4 -51 -52 0
3 -51 -52 0
49 -51 -52 0
-4 51 52 0
-3 51 52 0
-49 51 52 0
-3 -4 -49 52 0
3 4 49 -52 0
-4 -5 53 0
-5 -51 53 0
-4 -51 53 0
4 5 -53 0
5 51 -53 0
4 51 -53 0
5 -53 -54 0
4 -53 -54 0
51 -53 -54 0
-5 53 54 0
-4 53 54 0
-51 53 54 0
-4 -5 -51 54 0
4 5 51 -54 0
-5 -6 55 0
-6 -53 55 0
-5 -53 55 0
5 6 -55 0
6 53 -55 0
5 53 -55 0
6 -55 -56 0
5 -55 -56 0
53 -55 -56 0
-6 55 56 0
-5 55 56 0
-53 55 56 0
-5 -6 -53 56 0
5 6 53 -56 0
-6 -7 57 0
-7 -55 57 0
-6 -55 57 0
6 7 -57 0
7 55 -57 0
6 55 -57 0
7 -57 -58 0
6 -57 -58 0
55 -57 -58 0
-7 57 58 0
-6 57 58 0
-55 57 58 0
-6 -7 -55 58 0
6 7 55 -58 0
-7 -8 59 0
-8 -57 59 0
-7 -57 59 0
7 8 -59 0
8 57 -59 0
7 57 -59 0
8 -59 -60 0
7 -59 -60 0
57 -59 -60 0
-8 59 60 0
-7 59 60 0
-57 59 60 0
-7 -8 -57 60 0
7 8 57 -60 0
8 -61 0
59 -61 0
-8 -59 61 0
-8 -59 -62 0
8 59 -62 0
-8 59 62 0
8 -59 62 0
50 -63 0
1 -63 0
-1 -50 63 0
-1 -50 -64 0
1 50 -64 0
1 -50 64 0
-1 50 64 0
-2 -52 65 0
-52 -63 65 0
-2 -63 65 0
2 52 -65 0
52 63 -65 0
2 63 -65 0
52 -65 -66 0
2 -65 -66 0
63 -65 -66 0
-52 65 66 0
-2 65 66 0
-63 65 66 0
-2 -52 -63 66 0
2 52 63 -66 0
-3 -54 67 0
-54 -65 67 0
-3 -65 67 0
3 54 -67 0
54 65 -67 0
3 65 -67 0
54 -67 -68 0
3 -67 -68 0
65 -67 -68 0
-54 67 68 0
-3 67 68 0
-65 67 68 0
-3 -54 -65 68 0
3 54 65 -68 0
-4 -56 69 0
-56 -67 69 0
-4 -67 69 0
4 56 -69 0
56 67 -69 0
4 67 -69 0
56 -69 -70 0
4 -69 -70 0
67 -69 -70 0
-56 69 70 0
-4 69 70 0
-67 69 70 0
-4 -56 -67 70 0
4 56 67 -70 0
-5 -58 71 0
-58 -69 71 0
-5 -69 71 0
5 58 -71 0
58 69 -71 0
5 69 -71 0
58 -71 -72 0
5 -71 -72 0
69 -71 -72 0
-58 71 72 0
-5 71 72 0
-69 71 72 0
-5 -58 -69 72 0
5 58 69 -72 0
-6 -60 73 0
-60 -71 73 0
-6 -71 73 0
6 60 -73 0
60 71 -73 0
6 71 -73 0
60 -73 -74 0
6 -73 -74 0
71 -73 -74 0
-60 73 74 0
-6 73 74 0
-71 73 74 0
-6 -60 -71 74 0
6 60 71 -74 0
-7 -62 75 0
-62 -73 75 0
-7 -73 75 0
7 62 -75 0
62 73 -75 0
7 73 -75 0
62 -75 -76 0
7 -75 -76 0
73 -75 -76 0
-62 75 76 0
-7 75 76 0
-73 75 76 0
-7 -62 -73 76 0
7 62 73 -76 0
-8 -61 77 0
-61 -75 77 0
-8 -75 77 0
8 61 -77 0
61 75 -77 0
8 75 -77 0
61 -77 -78 0
8 -77 -78 0
75 -77 -78 0
-61 77 78 0
-8 77 78 0
-75 77 78 0
-8 -61 -75 78 0
8 61 75 -78 0
68 -79 0
1 -79 0
-1 -68 79 0
-1 -68 -80 0
1 68 -80 0
1 -68 80 0
-1 68 80 0
-2 -70 81 0
-70 -79 81 0
-2 -79 81 0
2 70 -81 0
70 79 -81 0
2 79 -81 0
70 -81 -82 0
2 -81 -82 0
79 -81 -82 0
-70 81 82 0
-2 81 82 0
-79 81 82 0
-2 -70 -79 82 0
2 70 79 -82 0
-3 -72 83 0
-72 -81 83 0
-3 -81 83 0
3 72 -83 0
72 81 -83 0
3 81 -83 0
72 -83 -84 0
3 -83 -84 0
81 -83 -84 0
-72 83 84 0
-3 83 84 0
-81 83 84 0
-3 -72 -81 84 0
3 72 81 -84 0
-4 -74 85 0
-74 -83 85 0
-4 -83 85 0
4 74 -85 0
74 83 -85 0
4 83 -85 0
74 -85 -86 0
4 -85 -86 0
83 -85 -86 0
-74 85 86 0
-4 85 86 0
-83 85 86 0
-4 -74 -83 86 0
4 74 83 -86 0
-5 -76 87 0
-76 -85 87 0
-5 -85 87 0
5 76 -87 0
76 85 -87 0
5 85 -87 0
76 -87 -88 0
5 -87 -88 0
85 -87 -88 0
-76 87 88 0
-5 87 88 0
-85 87 88 0
-5 -76 -85 88 0
5 76 85 -88 0
-6 -78 89 0
-78 -87 89 0
-6 -87 89 0
6 78 -89 0
78 87 -89 0
6 87 -89 0
78 -89 -90 0
6 -89 -90 0
87 -89 -90 0
-78 89 90 0
-6 89 90 0
-87 89 90 0
-6 -78 -87 90 0
6 78 87 -90 0
-7 -77 91 0
-77 -89 91 0
-7 -89 91 0
7 77 -91 0
77 89 -91 0
7 89 -91 0
77 -91 -92 0
7 -91 -92 0
89 -91 -92 0
-77 91 92 0
-7 91 92 0
-89 91 92 0
-7 -77 -89 92 0
7 77 89 -92 0
8 -93 0
91 -93 0
-8 -91 93 0
-8 -91 -94 0
8 91 -94 0
-8 91 94 0
8 -91 94 0
-1 -95 0
-48 -95 0
1 48 95 0
1 48 -96 0
-1 -48 -96 0
-1 48 96 0
1 -48 96 0
95 -97 0
-64 -97 0
64 -95 97 0
64 -95 -98 0
-64 95 -98 0
64 95 98 0
-64 -95 98 0
97 -99 0
-66 -99 0
66 -97 99 0
66 -97 -100 0
-66 97 -100 0
66 97 100 0
-66 -97 100 0
99 -101 0
-80 -101 0
80 -99 101 0
80 -99 -102 0
-80 99 -102 0
80 99 102 0
-80 -99 102 0
101 -103 0
-82 -103 0
82 -101 103 0
82 -101 -104 0
-82 101 -104 0
82 101 104 0
-82 -101 104 0
103 -105 0
-84 -105 0
84 -103 105 0
84 -103 -106 0
-84 103 -106 0
84 103 106 0
-84 -103 106 0
105 -107 0
-86 -107 0
86 -105 107 0
86 -105 -108 0
-86 105 -108 0
86 105 108 0
-86 -105 108 0
107 -109 0
-88 -109 0
88 -107 109 0
88 -107 -110 0
-88 107 -110 0
88 107 110 0
-88 -107 110 0
109 -111 0
-90 -111 0
90 -109 111 0
90 -109 -112 0
-90 109 -112 0
90 109 112 0
-90 -109 112 0
111 -113 0
-92 -113 0
92 -111 113 0
92 -111 -114 0
-92 111 -114 0
92 111 114 0
-92 -111 114 0
113 -115 0
-94 -115 0
94 -113 115 0
94 -113 -116 0
-94 113 -116 0
94 113 116 0
-94 -113 116 0
115 -117 0
-93 -117 0
93 -115 117 0
93 -115 -118 0
-93 115 -118 0
93 115 118 0
-93 -115 118 0
-9 -119 0
-10 -119 0
9 10 119 0
9 10 -120 0
-9 -10 -120 0
-9 10 120 0
9 -10 120 0
119 -121 0
-11 -121 0
11 -119 121 0
11 -119 -122 0
-11 119 -122 0
11 119 122 0
-11 -119 122 0
121 -123 0
-12 -123 0
12 -121 123 0
12 -121 -124 0
-12 121 -124 0
12 121 124 0
-12 -121 124 0
123 -125 0
-13 -125 0
13 -123 125 0
13 -123 -126 0
-13 123 -126 0
13 123 126 0
-13 -123 126 0
125 -127 0
-14 -127 0
14 -125 127 0
14 -125 -128 0
-14 125 -128 0
14 125 128 0
-14 -125 128 0
127 -129 0
-15 -129 0
15 -127 129 0
15 -127 -130 0
-15 127 -130 0
15 127 130 0
-15 -127 130 0
129 -131 0
-16 -131 0
16 -129 131 0
16 -129 -132 0
-16 129 -132 0
16 129 132 0
-16 -129 132 0
10 -133 0
9 -133 0
-9 -10 133 0
-9 -10 -134 0
9 10 -134 0
9 -10 134 0
-9 10 134 0
-10 -11 135 0
-11 -133 135 0
-10 -133 135 0
10 11 -135 0
11 133 -135 0
10 133 -135 0
11 -135 -136 0
10 -135 -136 0
133 -135 -136 0
-11 135 136 0
-10 135 136 0
-133 135 136 0
-10 -11 -133 136 0
10 11 133 -136 0
-11 -12 137 0
-12 -135 137 0
-11 -135 137 0
11 12 -137 0
12 135 -137 0
11 135 -137 0
12 -137 -138 0
11 -137 -138 0
135 -137 -138 0
-12 137 138 0
-11 137 138 0
-135 137 138 0
-11 -12 -135 138 0
11 12 135 -138 0
-12 -13 139 0
-13 -137 139 0
-12 -137 139 0
12 13 -139 0
13 137 -139 0
12 137 -139 0
13 -139 -140 0
12 -139 -140 0
137 -139 -140 0
-13 139 140 0
-12 139 140 0
-137 139 140 0
-12 -13 -137 140 0
12 13 137 -140 0
-13 -14 141 0
-14 -139 141 0
-13 -139 141 0
13 14 -141 0
14 139 -141 0
13 139 -141 0
14 -141 -142 0
13 -141 -142 0
139 -141 -142 0
-14 141 142 0
-13 141 142 0
-139 141 142 0
-13 -14 -139 142 0
13 14 139 -142 0
-14 -15 143 0
-15 -141 143 0
-14 -141 143 0
14 15 -143 0
15 141 -143 0
14 141 -143 0
15 -143 -144 0
14 -143 -144 0
141 -143 -144 0
-15 143 144 0
-14 143 144 0
-141 143 144 0
-14 -15 -141 144 0
14 15 141 -144 0
-15 -16 145 0
-16 -143 145 0
-15 -143 145 0
15 16 -145 0
16 143 -145 0
15 143 -145 0
16 -145 -146 0
15 -145 -146 0
143 -145 -146 0
-16 145 146 0
-15 145 146 0
-143 145 146 0
-15 -16 -143 146 0
15 16 143 -146 0
16 -147 0
145 -147 0
-16 -145 147 0
-16 -145 -148 0
16 145 -148 0
-16 145 148 0
16 -145 148 0
136 -149 0
9 -149 0
-9 -136 149 0
-9 -136 -150 0
9 136 -150 0
9 -136 150 0
-9 136 150 0
-10 -138 151 0
-138 -149 151 0
-10 -149 151 0
10 138 -151 0
138 149 -151 0
10 149 -151 0
138 -151 -152 0
10 -151 -152 0
149 -151 -152 0
-138 151 152 0
-10 151 152 0
-149 151 152 0
-10 -138 -149 152 0
10 138 149 -152 0
-11 -140 153 0
-140 -151 153 0
-11 -151 153 0
11 140 -153 0
140 151 -153 0
11 151 -153 0
140 -153 -154 0
11 -153 -154 0
151 -153 -154 0
-140 153 154 0
-11 153 154 0
-151 153 154 0
-11 -140 -151 154 0
11 140 151 -154 0
-12 -142 155 0
-142 -153 155 0
-12 -153 155 0
12 142 -155 0
142 153 -155 0
12 153 -155 0
142 -155 -156 0
12 -155 -156 0
153 -155 -156 0
-142 155 156 0
-12 155 156 0
-153 155 156 0
-12 -142 -153 156 0
12 142 153 -156 0
-13 -144 157 0
-144 -155 157 0
-13 -155 157 0
13 144 -157 0
144 155 -157 0
13 155 -157 0
144 -157 -158 0
13 -157 -158 0
155 -157 -158 0
-144 157 158 0
-13 157 158 0
-155 157 158 0
-13 -144 -155 158 0
13 144 155 -158 0
-14 -146 159 0
-146 -157 159 0
-14 -157 159 0
14 146 -159 0
146 157 -159 0
14 157 -159 0
146 -159 -160 0
14 -159 -160 0
157 -159 -160 0
-146 159 160 0
-14 159 160 0
-157 159 160 0
-14 -146 -157 160 0
14 146 157 -160 0
-15 -148 161 0
-148 -159 161 0
-15 -159 161 0
15 148 -161 0
148 159 -161 0
15 159 -161 0
148 -161 -162 0
15 -161 -162 0
159 -161 -162 0
-148 161 162 0
-15 161 162 0
-159 161 162 0
-15 -148 -159 162 0
15 148 159 -162 0
-16 -147 163 0
-147 -161 163 0
-16 -161 163 0
16 147 -163 0
147 161 -163 0
16 161 -163 0
147 -163 -164 0
16 -163 -164 0
161 -163 -164 0
-147 163 164 0
-16 163 164 0
-161 163 164 0
-16 -147 -161 164 0
16 147 161 -164 0
156 -165 0
9 -165 0
-9 -156 165 0
-9 -156 -166 0
9 156 -166 0
9 -156 166 0
-9 156 166 0
-10 -158 167 0
-158 -165 167 0
-10 -165 167 0
10 158 -167 0
158 165 -167 0
10 165 -167 0
158 -167 -168 0
10 -167 -168 0
165 -167 -168 0
-158 167 168 0
-10 167 168 0
-165 167 168 0
-10 -158 -165 168 0
10 158 165 -168 0
-11 -160 169 0
-160 -167 169 0
-11 -167 169 0
11 160 -169 0
160 167 -169 0
11 167 -169 0
160 -169 -170 0
11 -169 -170 0
167 -169 -170 0
-160 169 170 0
-11 169 170 0
-167 169 170 0
-11 -160 -167 170 0
11 160 167 -170 0
-12 -162 171 0
-162 -169 171 0
-12 -169 171 0
12 162 -171 0
162 169 -171 0
12 169 -171 0
162 -171 -172 0
12 -171 -172 0
169 -171 -172 0
-162 171 172 0
-12 171 172 0
-169 171 172 0
-12 -162 -169 172 0
12 162 169 -172 0
-13 -164 173 0
-164 -171 173 0
-13 -171 173 0
13 164 -173 0
164 171 -173 0
13 171 -173 0
164 -173 -174 0
13 -173 -174 0
171 -173 -174 0
-164 173 174 0
-13 173 174 0
-171 173 174 0
-13 -164 -171 174 0
13 164 171 -174 0
-14 -163 175 0
-163 -173 175 0
-14 -173 175 0
14 163 -175 0
163 173 -175 0
14 173 -175 0
163 -175 -176 0
14 -175 -176 0
173 -175 -176 0
-163 175 176 0
-14 175 176 0
-173 175 176 0
-14 -163 -173 176 0
14 163 173 -176 0
15 -177 0
175 -177 0
-15 -175 177 0
-15 -175 -178 0
15 175 -178 0
-15 175 178 0
15 -175 178 0
16 -179 0
177 -179 0
-16 -177 179 0
-16 -177 -180 0
16 177 -180 0
-16 177 180 0
16 -177 180 0
-9 -181 0
-134 -181 0
9 134 181 0
9 134 -182 0
-9 -134 -182 0
-9 134 182 0
9 -134 182 0
181 -183 0
-150 -183 0
150 -181 183 0
150 -181 -184 0
-150 181 -184 0
150 181 184 0
-150 -181 184 0
183 -185 0
-152 -185 0
152 -183 185 0
152 -183 -186 0
-152 183 -186 0
152 183 186 0
-152 -183 186 0
185 -187 0
-154 -187 0
154 -185 187 0
154 -185 -188 0
-154 185 -188 0
154 185 188 0
-154 -185 188 0
187 -189 0
-166 -189 0
166 -187 189 0
166 -187 -190 0
-166 187 -190 0
166 187 190 0
-166 -187 190 0
189 -191 0
-168 -191 0
168 -189 191 0
168 -189 -192 0
-168 189 -192 0
168 189 192 0
-168 -189 192 0
191 -193 0
-170 -193 0
170 -191 193 0
170 -191 -194 0
-170 191 -194 0
170 191 194 0
-170 -191 194 0
193 -195 0
-172 -195 0
172 -193 195 0
172 -193 -196 0
-172 193 -196 0
172 193 196 0
-172 -193 196 0
195 -197 0
-174 -197 0
174 -195 197 0
174 -195 -198 0
-174 195 -198 0
174 195 198 0
-174 -195 198 0
197 -199 0
-176 -199 0
176 -197 199 0
176 -197 -200 0
-176 197 -200 0
176 197 200 0
-176 -197 200 0
199 -201 0
-178 -201 0
178 -199 201 0
178 -199 -202 0
-178 199 -202 0
178 199 202 0
-178 -199 202 0
201 -203 0
-180 -203 0
180 -201 203 0
180 -201 -204 0
-180 201 -204 0
180 201 204 0
-180 -201 204 0
203 -205 0
-179 -205 0
179 -203 205 0
179 -203 -206 0
-179 203 -206 0
179 203 206 0
-179 -203 206 0
1 -207 0
9 -207 0
-1 -9 207 0
-1 -9 -208 0
1 9 -208 0
-1 9 208 0
1 -9 208 0
-48 -134 209 0
-48 -207 209 0
-134 -207 209 0
48 134 -209 0
48 207 -209 0
134 207 -209 0
48 -209 -210 0
134 -209 -210 0
207 -209 -210 0
-48 209 210 0
-134 209 210 0
-207 209 210 0
-48 -134 -207 210 0
48 134 207 -210 0
-64 -150 211 0
-64 -209 211 0
-150 -209 211 0
64 150 -211 0
64 209 -211 0
150 209 -211 0
64 -211 -212 0
150 -211 -212 0
209 -211 -212 0
-64 211 212 0
-150 211 212 0
-209 211 212 0
-64 -150 -209 212 0
64 150 209 -212 0
-66 -152 213 0
-66 -211 213 0
-152 -211 213 0
66 152 -213 0
66 211 -213 0
152 211 -213 0
66 -213 -214 0
152 -213 -214 0
211 -213 -214 0
-66 213 214 0
-152 213 214 0
-211 213 214 0
-66 -152 -211 214 0
66 152 211 -214 0
-80 -154 215 0
-80 -213 215 0
-154 -213 215 0
80 154 -215 0
80 213 -215 0
154 213 -215 0
80 -215 -216 0
154 -215 -216 0
213 -215 -216 0
-80 215 216 0
-154 215 216 0
-213 215 216 0
-80 -154 -213 216 0
80 154 213 -216 0
-82 -166 217 0
-82 -215 217 0
-166 -215 217 0
82 166 -217 0
82 215 -217 0
166 215 -217 0
82 -217 -218 0
166 -217 -218 0
215 -217 -218 0
-82 217 218 0
-166 217 218 0
-215 217 218 0
-82 -166 -215 218 0
82 166 215 -218 0
-84 -168 219 0
-84 -217 219 0
-168 -217 219 0
84 168 -219 0
84 217 -219 0
168 217 -219 0
84 -219 -220 0
168 -219 -220 0
217 -219 -220 0
-84 219 220 0
-168 219 220 0
-217 219 220 0
-84 -168 -217 220 0
84 168 217 -220 0
-86 -170 221 0
-86 -219 221 0
-170 -219 221 0
86 170 -221 0
86 219 -221 0
170 219 -221 0
86 -221 -222 0
170 -221 -222 0
219 -221 -222 0
-86 221 222 0
-170 221 222 0
-219 221 222 0
-86 -170 -219 222 0
86 170 219 -222 0
-88 -172 223 0
-88 -221 223 0
-172 -221 223 0
88 172 -223 0
88 221 -223 0
172 221 -223 0
88 -223 -224 0
172 -223 -224 0
221 -223 -224 0
-88 223 224 0
-172 223 224 0
-221 223 224 0
-88 -172 -221 224 0
88 172 221 -224 0
-90 -174 225 0
-90 -223 225 0
-174 -223 225 0
90 174 -225 0
90 223 -225 0
174 223 -225 0
90 -225 -226 0
174 -225 -226 0
223 -225 -226 0
-90 225 226 0
-174 225 226 0
-223 225 226 0
-90 -174 -223 226 0
90 174 223 -226 0
-92 -176 227 0
-92 -225 227 0
-176 -225 227 0
92 176 -227 0
92 225 -227 0
176 225 -227 0
92 -227 -228 0
176 -227 -228 0
225 -227 -228 0
-92 227 228 0
-176 227 228 0
-225 227 228 0
-92 -176 -225 228 0
92 176 225 -228 0
-94 -178 229 0
-94 -227 229 0
-178 -227 229 0
94 178 -229 0
94 227 -229 0
178 227 -229 0
94 -229 -230 0
178 -229 -230 0
227 -229 -230 0
-94 229 230 0
-178 229 230 0
-227 229 230 0
-94 -178 -227 230 0
94 178 227 -230 0
-93 -180 231 0
-93 -229 231 0
-180 -229 231 0
93 180 -231 0
93 229 -231 0
180 229 -231 0
93 -231 -232 0
180 -231 -232 0
229 -231 -232 0
-93 231 232 0
-180 231 232 0
-229 231 232 0
-93 -180 -229 232 0
93 180 229 -232 0
179 -233 0
231 -233 0
-179 -231 233 0
-179 -231 -234 0
179 231 -234 0
-179 231 234 0
179 -231 234 0
-208 -235 0
210 -235 0
-212 -235 0
-214 -235 0
-216 -235 0
-218 -235 0
220 -235 0
222 -235 0
-224 -235 0
-226 -235 0
-228 -235 0
-230 -235 0
-232 -235 0
-233 -235 0
-234 -235 0
208 -210 212 214 216 218 -220 -222 224 226 228 230 232 233 234 235 0
235 0
c main::$tmp::return_value_nondet_char!0@1#1 17 18 19 20 21 22 23 24
c symex::nondet1 9 10 11 12 13 14 15 16
c symex::nondet0 1 2 3 4 5 6 7 8
c main::$tmp::return_value_nondet_char$0!0@1#2 9 10 11 12 13 14 15 16
c __CPROVER_rounding_mode!0#1 FALSE FALSE FALSE FALSE FALSE FALSE FALSE FALSE FALSE FALSE FALSE FALSE FALSE FALSE FALSE FALSE FALSE FALSE FALSE FALSE FALSE FALSE FALSE FALSE FALSE FALSE FALSE FALSE FALSE FALSE FALSE FALSE
c main::$tmp::return_value_nondet_char$0!0@1#1 25 26 27 28 29 30 31 32
c __CPROVER_memory_leak#1 FALSE FALSE FALSE FALSE FALSE FALSE FALSE FALSE FALSE FALSE FALSE FALSE FALSE FALSE FALSE FALSE FALSE FALSE FALSE FALSE FALSE FALSE FALSE FALSE FALSE FALSE FALSE FALSE FALSE FALSE FALSE FALSE FALSE FALSE FALSE FALSE FALSE FALSE FALSE FALSE FALSE FALSE FALSE FALSE FALSE FALSE FALSE FALSE FALSE FALSE FALSE FALSE FALSE FALSE FALSE FALSE FALSE FALSE FALSE FALSE FALSE FALSE FALSE FALSE
c __CPROVER_max_malloc_size#1 FALSE FALSE FALSE FALSE FALSE FALSE FALSE FALSE FALSE FALSE FALSE FALSE FALSE FALSE FALSE FALSE FALSE FALSE FALSE FALSE FALSE FALSE FALSE FALSE FALSE FALSE FALSE FALSE FALSE FALSE FALSE FALSE FALSE FALSE FALSE FALSE FALSE FALSE FALSE FALSE FALSE FALSE FALSE FALSE FALSE FALSE FALSE FALSE FALSE FALSE FALSE FALSE FALSE FALSE FALSE TRUE FALSE FALSE FALSE FALSE FALSE FALSE FALSE FALSE
c __CPROVER_deallocated#1 FALSE FALSE FALSE FALSE FALSE FALSE FALSE FALSE FALSE FALSE FALSE FALSE FALSE FALSE FALSE FALSE FALSE FALSE FALSE FALSE FALSE FALSE FALSE FALSE FALSE FALSE FALSE FALSE FALSE FALSE FALSE FALSE FALSE FALSE FALSE FALSE FALSE FALSE FALSE FALSE FALSE FALSE FALSE FALSE FALSE FALSE FALSE FALSE FALSE FALSE FALSE FALSE FALSE FALSE FALSE FALSE FALSE FALSE FALSE FALSE FALSE FALSE FALSE FALSE
c main::$tmp::return_value_nondet_char!0@1#2 1 2 3 4 5 6 7 8
c __CPROVER_dead_object#1 FALSE FALSE FALSE FALSE FALSE FALSE FALSE FALSE FALSE FALSE FALSE FALSE FALSE FALSE FALSE FALSE FALSE FALSE FALSE FALSE FALSE FALSE FALSE FALSE FALSE FALSE FALSE FALSE FALSE FALSE FALSE FALSE FALSE FALSE FALSE FALSE FALSE FALSE FALSE FALSE FALSE FALSE FALSE FALSE FALSE FALSE FALSE FALSE FALSE FALSE FALSE FALSE FALSE FALSE FALSE FALSE FALSE FALSE FALSE FALSE FALSE FALSE FALSE FALSE
